1 1564
2 1433
3 1388
13 1386
17 1385
19 1360
32 1343
33 1325
270 1303
335 1301
444 1297



1 1592
2 1448
4 1442
5 1423
6 1404
19 1367
56 1365
65 1349
170 1322
773 1317



1 1595
2 1511
4 1444
7 1404
11 1384
17 1355
183 1352
275 1350
333 1340
355 1321
440 1305
575 1294



1 1624
2 1483
3 1443
4 1429
6 1362
34 1344
129 1331
174 1314
501 1301



1 1583
2 1504
3 1454
4 1418
5 1407
8 1401
12 1376
30 1359
47 1351
147 1334
167 1307



